NAME : bier127.tsp
COMMENT : Optimal tour for bier127.tsp
TYPE : TOUR
DIMENSION : 127
Total Length: 124114.64486314118
TOUR_SECTION
1
16
37
36
35
44
103
45
54
57
121
56
5
52
124
66
55
47
49
53
48
118
46
94
112
111
107
127
93
95
123
40
43
34
42
39
38
26
25
33
122
28
29
32
97
98
101
102
63
119
96
109
88
87
86
85
110
104
125
89
92
99
65
113
64
58
100
91
61
62
59
60
116
90
11
9
8
19
72
18
77
74
73
67
68
71
70
69
75
82
83
126
81
84
117
78
76
79
80
31
27
30
41
14
12
15
108
20
17
21
22
4
23
24
6
106
105
114
3
10
120
13
115
50
51
2
7
-1
EOF
